n_res = 4;
rc = [ 20, 26, 12, 17 ];
n_tasks = 30;
d = [ 8, 5, 9, 3, 6, 8, 8, 10, 1, 5, 7, 10, 3, 2, 6, 4, 5, 6, 6, 7, 3, 8, 8, 4, 2, 3, 5, 3, 2, 8 ];
rr = [| 2, 2, 7, 5, 4, 0, 0, 5, 0, 2, 10, 0, 1, 7, 3, 2, 10, 8, 1, 4, 0, 3, 0, 3, 2, 0, 1, 0, 0, 0
      | 3, 3, 0, 1, 8, 10, 0, 0, 7, 3, 6, 0, 0, 7, 10, 10, 0, 0, 0, 7, 6, 0, 0, 8, 1, 0, 7, 0, 5, 0
      | 3, 0, 0, 0, 1, 0, 0, 0, 0, 0, 0, 4, 6, 0, 0, 0, 3, 9, 0, 0, 0, 3, 7, 0, 0, 0, 9, 9, 0, 0
      | 8, 1, 0, 1, 0, 0, 5, 0, 0, 0, 8, 0, 0, 0, 4, 5, 0, 4, 0, 0, 9, 5, 0, 0, 0, 2, 0, 7, 8, 2 |];
suc = [ { 2 }, 
        { 1 }, 
        { 4 }, 
        { 3 }, 
        { 6 }, 
        { 5 }, 
        { 8 }, 
        { 7 }, 
        { 10 }, 
        { 9 }, 
        { 12 }, 
        { 11 }, 
        { 14 }, 
        { 13 }, 
        { 16 }, 
        { 15 }, 
        { 18 }, 
        { 17 }, 
        { 20 }, 
        { 19 }, 
        { 22 }, 
        { 21 }, 
        { 24 }, 
        { 23 }, 
        { 26 }, 
        { 25 }, 
        { 28 }, 
        { 27 }, 
        { 30 }, 
        { 29 }]; 
